9
0, 497, 468, 824, 468, 379, 548, 444, 432
497, 0, 176, 327, 122, 374, 104, 149, 444
468, 176, 0, 429, 53, 219, 280, 37, 563
824, 327, 429, 0, 394, 648, 293, 427, 676
468, 122, 53, 394, 0, 262, 227, 33, 522
379, 374, 219, 648, 262, 0, 475, 229, 644
548, 104, 280, 293, 227, 475, 0, 254, 401
444, 149, 37, 427, 33, 229, 254, 0, 526
432, 444, 563, 676, 522, 644, 401, 526, 0
